fsm/mealy/script_cvr/model/design_smt2.smt2
; SMT-LIBv2 description generated by Yosys 0.54 (git sha1 db72ec3bd, g++ 15.2.1 -march=x86-64 -mtune=generic -O2 -fno-plt -fexceptions -fstack-clash-protection -fcf-protection -fno-omit-frame-pointer -mno-omit-leaf-frame-pointer -ffile-prefix-map=/build/yosys/src=/usr/src/debug/yosys -fPIC -O3)
; yosys-smt2-module mealy
(declare-sort |mealy_s| 0)
(declare-fun |mealy_is| (|mealy_s|) Bool)
; yosys-smt2-memory $auto$proc_rom.cc:155:do_switch$9 4 8 1 0 sync
; yosys-smt2-witness {"path": ["$auto$proc_rom.cc:155:do_switch$9"], "rom": true, "size": 16, "smtname": "$auto$proc_rom.cc:155:do_switch$9", "statebv": false, "type": "mem", "uninitialized": [], "width": 8}
(declare-fun |mealy#0#0| (|mealy_s|) (Array (_ BitVec 4) (_ BitVec 8))) ; $auto$proc_rom.cc:155:do_switch$9
(define-fun |mealy_m $auto$proc_rom.cc:155:do_switch$9| ((state |mealy_s|)) (Array (_ BitVec 4) (_ BitVec 8)) (|mealy#0#0| state))
; yosys-smt2-witness {"offset": 0, "path": ["\\led_index"], "smtname": 1, "smtoffset": 0, "type": "reg", "width": 4}
(declare-fun |mealy#1| (|mealy_s|) (_ BitVec 4)) ; \led_index
(define-fun |mealy_m:R0A $auto$proc_rom.cc:155:do_switch$9| ((state |mealy_s|)) (_ BitVec 4) (|mealy#1| state)) ; \led_index
(define-fun |mealy#2| ((state |mealy_s|)) (_ BitVec 8) (select (|mealy#0#0| state) (|mealy_m:R0A $auto$proc_rom.cc:155:do_switch$9| state))) ; $2\o_led[7:0]
(define-fun |mealy_m:R0D $auto$proc_rom.cc:155:do_switch$9| ((state |mealy_s|)) (_ BitVec 8) (|mealy#2| state))
(declare-fun |mealy#3| (|mealy_s|) (_ BitVec 1)) ; \i_display_enable
(define-fun |mealy#4| ((state |mealy_s|)) (_ BitVec 8) (ite (= ((_ extract 0 0) (|mealy#3| state)) #b1) (|mealy#2| state) #b00000000)) ; \o_led
; yosys-smt2-output o_led 8
; yosys-smt2-wire o_led 8
(define-fun |mealy_n o_led| ((state |mealy_s|)) (_ BitVec 8) (|mealy#4| state))
(define-fun |mealy#5| ((state |mealy_s|)) (_ BitVec 4) (bvadd (|mealy#1| state) #b0001)) ; $add$mealy.v:13$3_Y
(define-fun |mealy#6| ((state |mealy_s|)) Bool (bvuge (|mealy#1| state) #b1110)) ; $ge$mealy.v:10$2_Y
(define-fun |mealy#7| ((state |mealy_s|)) (_ BitVec 4) (ite (|mealy#6| state) #b0001 (|mealy#5| state))) ; \next_led_index
; yosys-smt2-wire next_led_index 4
(define-fun |mealy_n next_led_index| ((state |mealy_s|)) (_ BitVec 4) (|mealy#7| state))
; yosys-smt2-register led_index 4
; yosys-smt2-wire led_index 4
(define-fun |mealy_n led_index| ((state |mealy_s|)) (_ BitVec 4) (|mealy#1| state))
; yosys-smt2-input i_display_enable 1
; yosys-smt2-wire i_display_enable 1
; yosys-smt2-witness {"offset": 0, "path": ["\\i_display_enable"], "smtname": "i_display_enable", "smtoffset": 0, "type": "input", "width": 1}
(define-fun |mealy_n i_display_enable| ((state |mealy_s|)) Bool (= ((_ extract 0 0) (|mealy#3| state)) #b1))
(declare-fun |mealy#8| (|mealy_s|) Bool) ; \i_clk
; yosys-smt2-input i_clk 1
; yosys-smt2-wire i_clk 1
; yosys-smt2-clock i_clk posedge
; yosys-smt2-witness {"offset": 0, "path": ["\\i_clk"], "smtname": "i_clk", "smtoffset": 0, "type": "posedge", "width": 1}
; yosys-smt2-witness {"offset": 0, "path": ["\\i_clk"], "smtname": "i_clk", "smtoffset": 0, "type": "input", "width": 1}
(define-fun |mealy_n i_clk| ((state |mealy_s|)) Bool (|mealy#8| state))
; yosys-smt2-witness {"offset": 0, "path": ["$auto$async2sync.cc:110:execute$27"], "smtname": 9, "smtoffset": 0, "type": "reg", "width": 1}
(declare-fun |mealy#9| (|mealy_s|) (_ BitVec 1)) ; $auto$async2sync.cc:110:execute$27
; yosys-smt2-register $auto$async2sync.cc:110:execute$27 1
(define-fun |mealy_n $auto$async2sync.cc:110:execute$27| ((state |mealy_s|)) Bool (= ((_ extract 0 0) (|mealy#9| state)) #b1))
; yosys-smt2-witness {"offset": 0, "path": ["$auto$async2sync.cc:101:execute$23"], "smtname": 10, "smtoffset": 0, "type": "reg", "width": 1}
(declare-fun |mealy#10| (|mealy_s|) (_ BitVec 1)) ; $auto$async2sync.cc:101:execute$23
; yosys-smt2-register $auto$async2sync.cc:101:execute$23 1
(define-fun |mealy_n $auto$async2sync.cc:101:execute$23| ((state |mealy_s|)) Bool (= ((_ extract 0 0) (|mealy#10| state)) #b1))
(define-fun |mealy#11| ((state |mealy_s|)) (_ BitVec 1) (bvnot (ite (|mealy#8| state) #b1 #b0))) ; $auto$rtlil.cc:2957:Not$35
; yosys-smt2-assume 0 $auto$formalff.cc:981:execute$36
(define-fun |mealy_u 0| ((state |mealy_s|)) Bool (or (= ((_ extract 0 0) (|mealy#11| state)) #b1) (not true))) ; $auto$formalff.cc:981:execute$36
; yosys-smt2-cover 0 _witness_.check_cover_mealy_v_38_5 mealy.v:38.2-38.26
(define-fun |mealy_c 0| ((state |mealy_s|)) Bool (and (= ((_ extract 0 0) (|mealy#9| state)) #b1) (= ((_ extract 0 0) (|mealy#10| state)) #b1))) ; _witness_.check_cover_mealy_v_38_5
(define-fun |mealy#12| ((state |mealy_s|)) Bool (= (|mealy#1| state) #b1110)) ; $eq$mealy.v:38$6_Y
(define-fun |mealy_a| ((state |mealy_s|)) Bool true)
(define-fun |mealy_u| ((state |mealy_s|)) Bool 
  (|mealy_u 0| state)
)
(define-fun |mealy_i| ((state |mealy_s|)) Bool (and
  (= (|mealy#1| state) #b0000) ; led_index
  (= (= ((_ extract 0 0) (|mealy#9| state)) #b1) true) ; $auto$async2sync.cc:110:execute$27
  (= (= ((_ extract 0 0) (|mealy#10| state)) #b1) false) ; $auto$async2sync.cc:101:execute$23
  (= (bvand (select (|mealy#0#0| state) #b0000) #b11111111) #b00000001) ; $auto$proc_rom.cc:155:do_switch$9[0]
  (= (bvand (select (|mealy#0#0| state) #b0001) #b11111111) #b00000001) ; $auto$proc_rom.cc:155:do_switch$9[1]
  (= (bvand (select (|mealy#0#0| state) #b0010) #b11111111) #b00000010) ; $auto$proc_rom.cc:155:do_switch$9[2]
  (= (bvand (select (|mealy#0#0| state) #b0011) #b11111111) #b00000100) ; $auto$proc_rom.cc:155:do_switch$9[3]
  (= (bvand (select (|mealy#0#0| state) #b0100) #b11111111) #b00001000) ; $auto$proc_rom.cc:155:do_switch$9[4]
  (= (bvand (select (|mealy#0#0| state) #b0101) #b11111111) #b00010000) ; $auto$proc_rom.cc:155:do_switch$9[5]
  (= (bvand (select (|mealy#0#0| state) #b0110) #b11111111) #b00100000) ; $auto$proc_rom.cc:155:do_switch$9[6]
  (= (bvand (select (|mealy#0#0| state) #b0111) #b11111111) #b01000000) ; $auto$proc_rom.cc:155:do_switch$9[7]
  (= (bvand (select (|mealy#0#0| state) #b1000) #b11111111) #b10000000) ; $auto$proc_rom.cc:155:do_switch$9[8]
  (= (bvand (select (|mealy#0#0| state) #b1001) #b11111111) #b01000000) ; $auto$proc_rom.cc:155:do_switch$9[9]
  (= (bvand (select (|mealy#0#0| state) #b1010) #b11111111) #b00100000) ; $auto$proc_rom.cc:155:do_switch$9[10]
  (= (bvand (select (|mealy#0#0| state) #b1011) #b11111111) #b00010000) ; $auto$proc_rom.cc:155:do_switch$9[11]
  (= (bvand (select (|mealy#0#0| state) #b1100) #b11111111) #b00001000) ; $auto$proc_rom.cc:155:do_switch$9[12]
  (= (bvand (select (|mealy#0#0| state) #b1101) #b11111111) #b00000100) ; $auto$proc_rom.cc:155:do_switch$9[13]
  (= (bvand (select (|mealy#0#0| state) #b1110) #b11111111) #b00000010) ; $auto$proc_rom.cc:155:do_switch$9[14]
  (= (bvand (select (|mealy#0#0| state) #b1111) #b11111111) #b00000001) ; $auto$proc_rom.cc:155:do_switch$9[15]
))
(define-fun |mealy_h| ((state |mealy_s|)) Bool true)
(define-fun |mealy_t| ((state |mealy_s|) (next_state |mealy_s|)) Bool (and
  (= #b1 (|mealy#10| next_state)) ; $auto$async2sync.cc:104:execute$25 $auto$async2sync.cc:101:execute$23
  (= (ite (|mealy#12| state) #b1 #b0) (|mealy#9| next_state)) ; $auto$async2sync.cc:112:execute$28 $auto$async2sync.cc:110:execute$27
  (= (|mealy#7| state) (|mealy#1| next_state)) ; $procdff$22 \led_index
  (= (|mealy#0#0| state) (|mealy#0#0| next_state)) ; $auto$proc_rom.cc:155:do_switch$9
)) ; end of module mealy
; yosys-smt2-topmod mealy
; end of yosys output
